Route #1: 16
Route #2: 21
Route #3: 116 46 133 126 119 91 70 100 137 22 96 132 56 43 151 118 97 135
Route #4: 10 12 121
Route #5: 93 55 152 19 108 134 115 82 104
Route #6: 33 63 52 103 72 4 127 48 77 128
Route #7: 3 59 122 51 31 140 94 124
Route #8: 84 26 58 69 71
Route #9: 2 143
Route #10: 28 60 9
Route #11: 36 6 7
Route #12: 148 98 50 85 76 18 114 81 44 54 142 73 90
Route #13: 65 131 111 15 29
Route #14: 42 53 57 64 75 17 38 112
Route #15: 107 27 62 101 61 78 120
Route #16: 37 20 138 68 146 130
Route #17: 25 95
Route #18: 105 110 145 113 109 123 136 79 24 80 49 129
Route #19: 102 87 47 23 144 41
Route #20: 139 40 86 99 92 150 32 67 35 106 125 5 141 149
Route #21: 39 1 89 66 88
Route #22: 13 34
Route #23: 14 74
Route #24: 83 8 45 117 147
Route #25: 11 30
Cost 22637.491735900097